25 50
1 2 5
1 6 2
2 3 1
2 7 2
3 4 4
3 8 2
4 5 4
4 9 4
5 10 5
6 7 5
6 11 4
7 8 2
7 12 5
8 9 3
8 13 5
9 10 1
9 14 1
10 15 4
11 12 1
11 16 2
12 13 5
12 17 2
13 14 1
13 18 3
14 15 5
14 19 1
15 20 4
16 17 4
16 21 5
17 18 2
17 22 1
18 19 5
18 23 1
19 20 4
19 24 1
20 25 1
21 22 3
22 23 3
23 24 1
24 25 3
1 21 5
2 22 3
3 23 5
4 24 1
5 25 4
1 5 2
6 10 2
11 15 4
16 20 4
21 25 5
